2024-12-14 22:08:38,308 - INFO: Restricted license - for non-production use only - expires 2026-11-23
2024-12-14 22:08:38,313 - INFO: Read MPS format model from file input/example-min.mps
2024-12-14 22:08:38,315 - INFO: Reading time = 0.00 seconds
2024-12-14 22:08:38,317 - INFO: flugpl: 18 rows, 18 columns, 46 nonzeros
2024-12-14 22:08:38,319 - INFO: Successfully loaded problem from input/example-min.mps
2024-12-14 22:08:38,321 - INFO: Problem Details:
2024-12-14 22:08:38,323 - INFO: - Variables: 18
2024-12-14 22:08:38,325 - INFO: - Constraints: 18
2024-12-14 22:08:38,326 - INFO: - Objective Sense: Minimize
2024-12-14 22:08:38,331 - INFO: Starting Optimization Experiment
2024-12-14 22:08:38,332 - INFO: Solving Original Problem
2024-12-14 22:08:38,335 - INFO: Gurobi Optimizer version 12.0.0 build v12.0.0rc1 (win64 - Windows 10.0 (19045.2))
2024-12-14 22:08:38,339 - INFO: 
2024-12-14 22:08:38,343 - INFO: CPU model: Intel(R) Core(TM) i7-6700HQ CPU @ 2.60GHz, instruction set [SSE2|AVX|AVX2]
2024-12-14 22:08:38,346 - INFO: Thread count: 4 physical cores, 8 logical processors, using up to 8 threads
2024-12-14 22:08:38,348 - INFO: 
2024-12-14 22:08:38,354 - INFO: Optimize a model with 18 rows, 18 columns and 46 nonzeros
2024-12-14 22:08:38,360 - INFO: Model fingerprint: 0xbc2259aa
2024-12-14 22:08:38,363 - INFO: Variable types: 7 continuous, 11 integer (0 binary)
2024-12-14 22:08:38,367 - INFO: Coefficient statistics:
2024-12-14 22:08:38,370 - INFO:   Matrix range     [9e-01, 2e+02]
2024-12-14 22:08:38,375 - INFO:   Objective range  [3e+01, 3e+03]
2024-12-14 22:08:38,377 - INFO:   Bounds range     [2e+01, 8e+01]
2024-12-14 22:08:38,380 - INFO:   RHS range        [6e+01, 1e+04]
2024-12-14 22:08:38,386 - INFO: Presolve removed 18 rows and 18 columns
2024-12-14 22:08:38,391 - INFO: Presolve time: 0.00s
2024-12-14 22:08:38,396 - INFO: Presolve: All rows and columns removed
2024-12-14 22:08:38,399 - INFO: 
2024-12-14 22:08:38,403 - INFO: Explored 0 nodes (0 simplex iterations) in 0.05 seconds (0.00 work units)
2024-12-14 22:08:38,408 - INFO: Thread count was 1 (of 8 available processors)
2024-12-14 22:08:38,411 - INFO: 
2024-12-14 22:08:38,415 - INFO: Solution count 1: 1.2015e+06 
2024-12-14 22:08:38,418 - INFO: 
2024-12-14 22:08:38,421 - INFO: Optimal solution found (tolerance 1.00e-04)
2024-12-14 22:08:38,424 - INFO: Best objective 1.201500000000e+06, best bound 1.201500000000e+06, gap 0.0000%
2024-12-14 22:08:38,427 - INFO: Solve Status: Optimal solution found
2024-12-14 22:08:38,430 - INFO: Objective Value: 1201500.0
2024-12-14 22:08:38,433 - INFO: Creating Permuted Problem
2024-12-14 22:08:38,439 - INFO: Read MPS format model from file input/example-min.mps
2024-12-14 22:08:38,443 - INFO: Reading time = 0.00 seconds
2024-12-14 22:08:38,447 - INFO: flugpl: 18 rows, 18 columns, 46 nonzeros
2024-12-14 22:08:38,450 - INFO: Creating permuted problem:
2024-12-14 22:08:38,452 - INFO: Permutation: [ 5  3  2  7  6 14  4 10  9 13 16  1  8 11 15 17  0 12]
2024-12-14 22:08:38,457 - INFO: Permuted problem created successfully.
2024-12-14 22:08:38,459 - INFO: Solving Permuted Problem
2024-12-14 22:08:38,465 - INFO: Gurobi Optimizer version 12.0.0 build v12.0.0rc1 (win64 - Windows 10.0 (19045.2))
2024-12-14 22:08:38,470 - INFO: 
2024-12-14 22:08:38,475 - INFO: CPU model: Intel(R) Core(TM) i7-6700HQ CPU @ 2.60GHz, instruction set [SSE2|AVX|AVX2]
2024-12-14 22:08:38,478 - INFO: Thread count: 4 physical cores, 8 logical processors, using up to 8 threads
2024-12-14 22:08:38,481 - INFO: 
2024-12-14 22:08:38,485 - INFO: Optimize a model with 18 rows, 18 columns and 46 nonzeros
2024-12-14 22:08:38,488 - INFO: Model fingerprint: 0x9e410407
2024-12-14 22:08:38,492 - INFO: Variable types: 7 continuous, 11 integer (0 binary)
2024-12-14 22:08:38,495 - INFO: Coefficient statistics:
2024-12-14 22:08:38,498 - INFO:   Matrix range     [9e-01, 2e+02]
2024-12-14 22:08:38,502 - INFO:   Objective range  [3e+01, 3e+03]
2024-12-14 22:08:38,507 - INFO:   Bounds range     [2e+01, 8e+01]
2024-12-14 22:08:38,510 - INFO:   RHS range        [6e+01, 1e+04]
2024-12-14 22:08:38,517 - INFO: Presolve removed 18 rows and 18 columns
2024-12-14 22:08:38,520 - INFO: Presolve time: 0.00s
2024-12-14 22:08:38,524 - INFO: Presolve: All rows and columns removed
2024-12-14 22:08:38,527 - INFO: 
2024-12-14 22:08:38,531 - INFO: Explored 0 nodes (0 simplex iterations) in 0.04 seconds (0.00 work units)
2024-12-14 22:08:38,534 - INFO: Thread count was 1 (of 8 available processors)
2024-12-14 22:08:38,538 - INFO: 
2024-12-14 22:08:38,543 - INFO: Solution count 1: 1.2015e+06 
2024-12-14 22:08:38,548 - INFO: 
2024-12-14 22:08:38,551 - INFO: Optimal solution found (tolerance 1.00e-04)
2024-12-14 22:08:38,554 - INFO: Best objective 1.201500000000e+06, best bound 1.201500000000e+06, gap 0.0000%
2024-12-14 22:08:38,556 - INFO: Solve Status: Optimal solution found
2024-12-14 22:08:38,561 - INFO: Objective Value: 1201500.0
2024-12-14 22:08:38,562 - INFO: Comparing Results
2024-12-14 22:08:38,564 - INFO: Original Objective: 1201500.0
2024-12-14 22:08:38,565 - INFO: Permuted Objective: 1201500.0
2024-12-14 22:08:38,566 - INFO: Absolute Difference: 0.0
2024-12-14 22:08:38,567 - INFO: Relative Difference: 0.0000%
2024-12-14 22:08:38,569 - INFO: Experiment Completed
